p cnf 29 79
a 2 27 0
e 1 3 4 5 6 7 8 9 10 11 12 13 14 15 16 17 18 19 20 21 22 23 24 25 26 28 29 0
4 1 -5 0
-4 -1 -5 0
4 -1 5 0
-4 1 5 0
-6 -3 0
-6 5 0
3 -5 6 0
7 2 0
7 6 0
-2 -6 -7 0
8 -1 0
8 -7 0
1 7 -8 0
11 10 0
11 6 0
-10 -6 -11 0
-12 -9 0
-12 11 0
9 -11 12 0
5 -1 -13 0
-5 1 -13 0
5 1 13 0
-5 -1 13 0
-14 1 -15 0
14 -1 -15 0
-14 -1 15 0
14 1 15 0
-16 9 0
-16 9 0
-9 16 0
-17 3 0
-17 16 0
-3 -16 17 0
18 6 0
18 17 0
-6 -17 -18 0
-19 15 0
-19 -18 0
-15 18 19 0
-13 19 -20 0
13 -19 -20 0
-13 -19 20 0
13 19 20 0
21 -12 0
21 -20 0
12 20 -21 0
22 8 0
22 21 0
-8 -21 -22 0
4 -1 -23 0
-4 1 -23 0
4 1 23 0
-4 -1 23 0
24 22 0
24 -23 0
-22 23 -24 0
26 -25 0
26 6 0
25 -6 -26 0
10 -9 -27 0
-10 9 -27 0
10 9 27 0
-10 -9 27 0
-26 27 -28 0
26 -27 -28 0
-26 -27 28 0
26 27 28 0
24 28 -29 0
-24 -28 -29 0
24 -28 29 0
-24 28 29 0
-28 9 11 -18 0
20 -17 27 29 9 6 -22 0
-7 -22 26 23 0
4 16 10 6 -29 0
-24 11 -3 5 -18 0
-14 5 6 28 0
-4 29 -18 0
29 0
